p cnf 15 38
-15 -14 5 0
15 -14 2 0
15 12 11 0
15 -12 -5 0
15 -10 -5 0
15 -8 -3 0
-15 -7 5 0
-15 4 -1 0
14 12 11 0
-14 12 -9 0
-14 -11 10 0
14 -9 -7 0
-14 8 -1 0
-14 -6 3 0
-14 -3 -1 0
14 2 1 0
-14 -2 -1 0
-13 -11 -4 0
-13 -8 7 0
13 -8 -4 0
-13 7 3 0
13 -6 -4 0
-13 5 -1 0
-12 6 5 0
12 -6 1 0
-12 2 1 0
-11 -10 3 0
11 -7 5 0
11 -5 -1 0
-11 -4 -2 0
-10 9 3 0
-10 -7 -1 0
10 -4 3 0
-9 7 -6 0
9 2 1 0
7 -6 4 0
-6 5 -4 0
6 -2 1 0
